objective value:                                   32
t_x151                                              1 	(obj:1)
t_x154                                              1 	(obj:1)
t_x155                                              1 	(obj:1)
t_x158                                              1 	(obj:1)
t_x163                                              1 	(obj:1)
t_x164                                              1 	(obj:1)
t_x165                                              1 	(obj:1)
t_x166                                              1 	(obj:1)
t_x167                                              1 	(obj:1)
t_x169                                              1 	(obj:1)
t_x170                                              1 	(obj:1)
t_x171                                              1 	(obj:1)
t_x172                                              1 	(obj:1)
t_x173                                              1 	(obj:1)
t_x174                                              1 	(obj:1)
t_x175                                              1 	(obj:1)
t_x176                                              1 	(obj:1)
t_x177                                              1 	(obj:1)
t_x180                                              1 	(obj:1)
t_x181                                              1 	(obj:1)
t_x182                                              1 	(obj:1)
t_x183                                              1 	(obj:1)
t_x185                                              1 	(obj:1)
t_x187                                              1 	(obj:1)
t_x188                                              1 	(obj:1)
t_x189                                              1 	(obj:1)
t_x190                                              1 	(obj:1)
t_x195                                              1 	(obj:1)
t_x198                                              1 	(obj:1)
t_x199                                              1 	(obj:1)
t_x202                                              1 	(obj:1)
t_x212                                              1 	(obj:1)
